p cnf 53 156
-4 2 0
-4 -3 0
-2 3 4 0
1 4 -5 0
-1 -4 -5 0
1 -4 5 0
-1 4 5 0
-7 -3 0
-7 -6 0
3 6 7 0
9 -7 0
9 8 0
7 -8 -9 0
10 -5 0
10 9 0
5 -9 -10 0
11 -6 -12 0
-11 6 -12 0
11 6 12 0
-11 -6 12 0
-16 -14 0
-16 -15 0
14 15 16 0
13 16 -17 0
-13 -16 -17 0
13 -16 17 0
-13 16 17 0
-18 -12 0
-18 -17 0
12 17 18 0
-1 8 -19 0
1 -8 -19 0
-1 -8 19 0
1 8 19 0
-21 19 0
-21 20 0
-19 -20 21 0
18 21 -22 0
-18 -21 -22 0
18 -21 22 0
-18 21 22 0
-24 -12 0
-24 -23 0
12 23 24 0
26 -25 0
26 25 0
27 16 0
27 26 0
-16 -26 -27 0
28 24 0
28 -27 0
-24 27 -28 0
29 -22 0
29 28 0
22 -28 -29 0
-30 15 0
-30 -1 0
-15 1 30 0
-30 -25 -31 0
30 25 -31 0
-30 25 31 0
30 -25 31 0
32 -29 0
32 -31 0
29 31 -32 0
33 23 0
33 16 0
-23 -16 -33 0
35 34 0
35 -20 0
-34 20 -35 0
11 16 -36 0
-11 -16 -36 0
11 -16 36 0
-11 16 36 0
35 36 -37 0
-35 -36 -37 0
35 -36 37 0
-35 36 37 0
-38 33 0
-38 -37 0
-33 37 38 0
32 -38 -39 0
-32 38 -39 0
32 38 39 0
-32 -38 39 0
-41 -40 0
-41 -30 0
40 30 41 0
42 16 0
42 4 0
-16 -4 -42 0
-43 41 0
-43 -42 0
-41 42 43 0
3 -19 -44 0
-3 19 -44 0
3 19 44 0
-3 -19 44 0
45 -30 0
45 20 0
30 -20 -45 0
-46 14 0
-46 45 0
-14 -45 46 0
46 26 -47 0
-46 -26 -47 0
46 -26 47 0
-46 26 47 0
-44 -47 -48 0
44 47 -48 0
-44 47 48 0
44 -47 48 0
49 43 0
49 -48 0
-43 48 -49 0
50 -19 0
50 -15 0
19 15 -50 0
-49 50 -51 0
49 -50 -51 0
-49 -50 51 0
49 50 51 0
52 39 0
52 51 0
-39 -51 -52 0
53 -10 0
53 -52 0
10 52 -53 0
-21 38 -33 -40 -44 0
7 -18 19 41 39 42 0
-30 -46 0
32 6 0
23 -1 -52 0
34 -43 3 7 0
42 36 -18 34 -21 0
-1 -19 3 14 -6 -22 0
-35 -6 0
44 14 -25 9 0
-14 -26 0
39 40 -21 27 -33 6 0
13 -18 -35 -23 0
-28 -29 0
5 -29 -2 0
28 27 -10 0
-22 -7 -36 -20 0
-51 -13 0
3 -24 -38 -5 -6 0
-32 -46 0
-31 51 23 30 0
-4 12 30 -43 11 23 0
53 -4 9 -40 0
-13 -45 12 6 0
-53 -9 6 -18 0
5 15 -51 29 0
53 0
